NAME : u1060
COMMENT : Optimum tour for u1060 (227475)
TYPE : TOUR
DIMENSION : 1060
TOUR_SECTION
469
465
472
470
471
473
482
481
479
480
478
525
531
532
534
533
538
535
536
537
542
543
541
540
539
548
547
546
545
544
737
736
735
577
576
578
575
574
573
572
571
567
566
565
564
563
562
561
556
560
559
557
558
570
591
592
594
593
595
596
597
450
451
452
453
454
455
456
458
457
449
448
446
447
441
440
426
425
424
423
414
413
418
417
416
415
401
400
402
399
398
397
428
427
429
430
431
432
434
433
435
437
438
439
442
443
444
445
598
599
603
604
602
601
600
436
614
615
613
616
617
623
622
624
626
628
629
630
635
636
637
638
639
640
643
661
662
659
660
644
646
645
647
650
649
648
652
651
653
658
657
656
654
655
665
664
663
642
641
668
667
666
669
634
633
632
631
627
625
621
620
619
618
612
611
610
609
605
606
608
607
670
682
683
684
685
686
687
688
689
681
680
679
675
674
673
671
672
676
678
677
715
716
717
718
714
713
712
711
710
709
708
719
720
721
707
706
705
704
703
702
701
690
691
692
693
694
695
696
590
589
588
568
569
587
586
585
583
584
579
580
582
581
697
700
698
699
722
723
724
725
726
727
728
730
729
734
733
731
732
738
739
740
741
742
743
744
745
746
747
748
749
750
751
752
755
753
759
754
756
757
758
760
761
762
763
764
765
766
767
776
777
775
769
768
770
771
772
773
774
778
779
780
781
782
783
784
785
786
787
788
789
790
791
792
793
794
795
797
796
798
799
800
801
802
803
804
342
341
340
339
338
329
328
327
326
325
320
321
322
323
324
330
337
336
335
334
332
331
333
812
806
805
807
808
809
810
811
813
814
816
815
316
315
306
307
314
312
313
244
245
243
241
240
242
839
841
842
843
845
844
840
838
818
819
820
817
821
822
823
825
824
830
829
831
826
828
827
832
833
834
836
835
837
938
937
936
935
934
939
940
941
943
942
966
967
968
965
947
944
945
946
933
932
931
928
930
929
927
952
951
953
950
954
955
949
948
963
964
962
961
960
959
956
958
957
79
78
77
81
80
76
75
74
73
72
71
70
69
68
67
66
992
991
990
989
985
983
979
978
977
976
975
974
969
971
970
972
973
981
980
982
984
986
987
988
993
994
995
996
997
998
1001
999
1000
1011
1012
1013
1014
1015
1016
1017
1018
1019
1010
1008
1007
1006
1004
1002
1003
1005
1022
1023
1024
1021
1025
1009
1020
1026
1027
1029
1028
63
64
65
62
61
59
60
54
58
57
55
56
1032
1031
1030
1036
1037
1035
1034
1033
36
1038
1039
1040
1044
1045
1046
1047
1048
1049
1042
1043
1041
33
32
35
34
40
41
39
37
38
53
52
51
50
42
43
44
45
49
48
82
47
46
84
83
99
86
85
87
91
88
89
90
98
93
92
891
94
95
96
107
97
101
100
102
103
106
105
104
122
121
14
15
13
17
16
18
19
12
20
21
22
23
24
25
26
27
28
31
30
29
11
10
9
1052
1053
1050
1051
1054
1055
1056
1057
1058
1059
3
0
2
1
4
5
6
8
7
126
125
124
123
128
127
129
130
120
119
115
117
118
116
110
109
108
114
112
111
113
887
882
888
889
890
892
893
895
896
897
898
926
925
924
923
917
916
915
914
913
912
911
907
906
904
903
905
902
901
899
900
894
881
880
879
871
870
869
872
873
877
878
874
875
876
884
886
885
883
131
133
134
132
135
136
137
138
139
140
141
142
143
144
145
146
147
148
149
150
151
152
153
154
155
157
156
158
164
165
159
160
161
162
163
166
167
168
171
172
173
174
170
169
175
176
177
178
179
180
181
182
183
185
184
186
187
188
189
190
191
192
204
193
194
198
203
202
201
200
199
197
196
195
266
265
263
264
253
255
256
257
262
261
258
259
260
233
231
232
223
226
225
224
855
856
859
857
858
221
222
220
219
218
217
216
208
207
206
205
209
210
211
212
213
215
214
866
867
868
908
909
910
865
864
863
862
861
860
920
918
919
921
922
850
849
848
847
846
851
854
853
852
228
227
229
230
236
237
238
239
246
247
248
250
235
234
249
251
252
254
310
309
311
308
303
302
300
301
304
305
317
318
319
350
349
351
352
353
354
355
356
348
344
343
346
345
347
508
507
506
509
510
505
512
511
504
513
516
514
515
520
521
522
523
524
518
519
517
503
502
501
500
499
498
497
496
495
494
493
492
490
491
483
484
485
486
487
488
489
367
368
366
365
358
359
360
361
357
362
363
364
369
371
372
370
295
296
298
299
297
294
293
292
289
290
291
288
287
286
285
284
283
282
281
280
373
374
375
376
377
378
379
380
381
382
383
384
385
386
389
388
275
276
277
278
279
267
271
270
269
272
268
274
273
390
391
392
393
394
395
396
403
404
387
405
406
407
408
409
410
411
412
419
420
421
422
463
462
461
460
459
555
554
553
552
551
550
549
528
529
530
526
527
476
477
474
475
468
467
464
466
-1
EOF